DIMACS2
20 38 27 20 114 152 130 14 90 143 46 45 56 24 16 158 123 89 36 70 133
p edge 160 373
e 0 87 1.0
e 0 69 1.0
e 1 130 8.0
e 1 50 1.0
e 2 30 4.0
e 2 143 24.0
e 3 37 1.0
e 3 38 36.0
e 4 55 1.0
e 4 18 1.0
e 5 90 36.0
e 5 17 1.0
e 6 117 2.0
e 6 29 1.0
e 7 150 1.0
e 7 158 35.0
e 8 5 2.0
e 8 19 2.0
e 9 112 4.0
e 9 89 48.0
e 10 24 26.0
e 10 132 5.0
e 11 100 1.0
e 11 13 1.0
e 12 108 1.0
e 12 111 1.0
e 13 49 1.0
e 13 147 1.0
e 14 92 14.0
e 14 25 3.0
e 14 36 22.0
e 14 38 7.0
e 14 10 15.0
e 14 70 31.0
e 14 45 45.0
e 15 42 2.0
e 15 56 44.0
e 16 84 22.0
e 16 99 7.0
e 16 24 48.0
e 16 114 34.0
e 16 123 35.0
e 16 70 49.0
e 17 116 1.0
e 17 45 13.0
e 18 27 33.0
e 18 151 1.0
e 19 129 1.0
e 19 153 2.0
e 20 158 37.0
e 20 26 36.0
e 20 14 2.0
e 20 70 21.0
e 20 133 20.0
e 20 114 36.0
e 20 24 13.0
e 20 123 32.0
e 20 143 13.0
e 21 138 1.0
e 21 116 1.0
e 22 157 2.0
e 22 5 2.0
e 23 3 1.0
e 23 89 2.0
e 24 60 13.0
e 24 147 19.0
e 24 158 16.0
e 25 152 46.0
e 25 16 14.0
e 26 35 1.0
e 26 1 1.0
e 27 115 42.0
e 27 57 15.0
e 27 152 33.0
e 27 89 38.0
e 27 90 27.0
e 27 114 37.0
e 28 13 1.0
e 28 23 3.0
e 29 24 23.0
e 29 121 1.0
e 30 105 1.0
e 30 107 1.0
e 31 106 3.0
e 31 113 2.0
e 32 89 44.0
e 32 118 2.0
e 33 127 1.0
e 33 58 1.0
e 34 132 2.0
e 34 42 1.0
e 35 14 31.0
e 35 156 1.0
e 36 8 9.0
e 36 158 9.0
e 36 46 37.0
e 36 114 11.0
e 36 130 4.0
e 36 143 36.0
e 37 71 1.0
e 37 30 1.0
e 38 142 42.0
e 38 62 39.0
e 38 152 29.0
e 38 46 44.0
e 39 87 2.0
e 39 100 2.0
e 40 61 1.0
e 40 118 1.0
e 41 4 1.0
e 41 156 3.0
e 42 37 1.0
e 42 84 1.0
e 43 131 1.0
e 43 136 2.0
e 44 18 1.0
e 44 65 1.0
e 45 68 8.0
e 45 90 10.0
e 45 36 3.0
e 45 114 7.0
e 45 123 23.0
e 46 82 27.0
e 46 35 22.0
e 46 114 11.0
e 46 56 1.0
e 46 70 30.0
e 46 45 4.0
e 47 79 1.0
e 47 87 1.0
e 48 156 1.0
e 48 88 1.0
e 49 60 1.0
e 49 64 1.0
e 50 40 1.0
e 50 111 1.0
e 51 110 1.0
e 51 33 1.0
e 52 56 17.0
e 52 132 1.0
e 53 99 2.0
e 53 102 4.0
e 54 29 1.0
e 54 7 2.0
e 55 139 1.0
e 55 9 6.0
e 56 127 36.0
e 56 139 26.0
e 56 38 5.0
e 56 114 33.0
e 56 16 5.0
e 56 70 20.0
e 57 153 2.0
e 57 17 2.0
e 58 127 2.0
e 58 155 2.0
e 59 24 19.0
e 59 152 14.0
e 60 64 1.0
e 60 68 3.0
e 61 73 1.0
e 61 9 1.0
e 62 29 1.0
e 62 131 1.0
e 63 28 1.0
e 63 35 1.0
e 64 0 1.0
e 64 42 3.0
e 65 30 1.0
e 65 86 2.0
e 66 5 1.0
e 66 147 1.0
e 67 26 2.0
e 67 50 1.0
e 68 92 1.0
e 68 63 1.0
e 69 71 1.0
e 69 114 28.0
e 70 41 26.0
e 70 51 9.0
e 70 158 44.0
e 71 59 1.0
e 71 112 1.0
e 72 90 45.0
e 72 24 14.0
e 73 155 3.0
e 73 149 1.0
e 74 122 1.0
e 74 25 1.0
e 75 155 1.0
e 75 54 1.0
e 76 67 3.0
e 76 87 1.0
e 77 88 1.0
e 77 27 40.0
e 78 62 2.0
e 78 69 1.0
e 79 128 1.0
e 79 136 1.0
e 80 69 2.0
e 80 77 1.0
e 81 144 1.0
e 81 152 16.0
e 82 53 2.0
e 82 65 1.0
e 83 49 1.0
e 83 154 2.0
e 84 63 2.0
e 84 91 2.0
e 85 135 2.0
e 85 2 1.0
e 86 45 10.0
e 86 31 1.0
e 87 62 1.0
e 87 66 1.0
e 88 139 4.0
e 88 2 5.0
e 89 22 11.0
e 89 80 41.0
e 89 46 1.0
e 89 123 30.0
e 90 18 13.0
e 90 134 24.0
e 90 24 19.0
e 91 62 3.0
e 91 35 1.0
e 92 41 1.0
e 92 66 1.0
e 93 89 5.0
e 93 99 1.0
e 94 37 1.0
e 94 115 3.0
e 95 41 3.0
e 95 98 1.0
e 96 33 1.0
e 96 115 1.0
e 97 52 2.0
e 97 115 2.0
e 98 148 1.0
e 98 25 2.0
e 99 88 1.0
e 99 113 1.0
e 100 94 1.0
e 100 66 1.0
e 101 5 2.0
e 101 50 1.0
e 102 130 6.0
e 102 137 1.0
e 103 38 33.0
e 103 84 2.0
e 104 101 1.0
e 104 96 1.0
e 105 55 1.0
e 105 37 1.0
e 106 108 1.0
e 106 132 1.0
e 107 69 1.0
e 107 16 45.0
e 108 129 1.0
e 108 100 1.0
e 109 128 1.0
e 109 1 1.0
e 110 25 1.0
e 110 112 1.0
e 111 33 1.0
e 111 21 1.0
e 112 72 1.0
e 112 41 2.0
e 113 77 1.0
e 113 39 1.0
e 114 42 26.0
e 114 98 40.0
e 115 49 1.0
e 115 136 2.0
e 116 13 1.0
e 116 43 2.0
e 117 119 1.0
e 117 67 1.0
e 118 143 8.0
e 118 63 1.0
e 119 31 2.0
e 119 147 1.0
e 120 131 1.0
e 120 14 2.0
e 121 107 1.0
e 121 153 1.0
e 122 32 2.0
e 122 153 1.0
e 123 151 49.0
e 123 133 47.0
e 123 143 35.0
e 123 70 46.0
e 123 130 47.0
e 124 120 2.0
e 124 38 31.0
e 125 124 2.0
e 125 21 1.0
e 126 36 13.0
e 126 69 1.0
e 127 141 2.0
e 127 79 1.0
e 128 72 1.0
e 128 118 1.0
e 129 85 1.0
e 130 151 45.0
e 130 146 44.0
e 130 133 49.0
e 130 89 24.0
e 130 27 49.0
e 131 28 2.0
e 131 132 1.0
e 132 37 1.0
e 132 81 1.0
e 133 67 11.0
e 133 28 4.0
e 133 56 3.0
e 133 143 39.0
e 133 152 36.0
e 133 158 7.0
e 134 50 2.0
e 134 1 1.0
e 135 36 5.0
e 135 43 1.0
e 136 145 1.0
e 136 38 10.0
e 137 81 2.0
e 137 155 1.0
e 138 112 1.0
e 138 131 1.0
e 139 125 2.0
e 139 48 2.0
e 140 13 1.0
e 140 29 1.0
e 141 110 2.0
e 141 50 1.0
e 142 45 39.0
e 142 93 1.0
e 143 154 38.0
e 143 120 43.0
e 143 152 23.0
e 144 28 1.0
e 144 128 1.0
e 145 4 1.0
e 145 16 31.0
e 146 120 1.0
e 146 154 2.0
e 147 109 1.0
e 147 33 3.0
e 148 116 2.0
e 148 84 3.0
e 149 156 1.0
e 149 79 1.0
e 150 103 1.0
e 150 32 2.0
e 151 90 8.0
e 151 52 1.0
e 152 70 18.0
e 152 77 49.0
e 153 126 2.0
e 153 25 1.0
e 154 39 1.0
e 154 41 1.0
e 155 7 1.0
e 155 46 48.0
e 156 88 1.0
e 156 73 1.0
e 157 55 1.0
e 157 30 1.0
e 158 26 34.0
e 158 90 9.0
e 158 123 13.0
e 159 27 28.0
e 159 21 2.0
